Cost: 519
0-4-30-2-6-0
0-26-40-32-44-3-17-0
0-34-52-13-27-45-0
0-28-22-42-41-43-1-0
0-38-10-39-9-12-0
0-33-23-24-49-16-51-0
0-21-47-36-37-5-29-0
0-46-8-19-35-7-0
Cost: 519
0-21-47-36-37-5-29-0
0-7-35-19-8-46-0
0-38-10-39-9-12-0
0-1-43-41-42-22-28-0
0-6-2-30-4-0
0-45-27-13-52-34-0
0-26-40-32-44-3-17-0
0-33-23-24-49-16-51-0
Cost: 519
0-7-35-19-8-46-0
0-29-5-37-36-47-21-0
0-38-10-39-9-12-0
0-45-27-13-52-34-0
0-26-40-32-44-3-17-0
0-4-30-2-6-0
0-1-43-41-42-22-28-0
0-51-16-49-24-23-33-0
Cost: 519
0-7-35-19-8-46-0
0-45-27-13-52-34-0
0-4-30-2-6-0
0-38-10-39-9-12-0
0-26-40-32-44-3-17-0
0-1-43-41-42-22-28-0
0-33-23-24-49-16-51-0
0-21-47-36-37-5-29-0
Cost: 519
0-1-43-41-42-22-28-0
0-12-39-9-32-40-0
0-30-2-33-51-6-0
0-26-10-38-11-53-0
0-29-5-37-36-47-21-0
0-34-52-27-45-4-0
0-17-3-24-49-23-16-0
0-7-35-19-8-46-0
Cost: 519
0-46-8-19-35-7-0
0-29-5-37-36-47-21-0
0-1-43-41-42-22-28-0
0-12-39-9-32-40-0
0-30-2-33-51-6-0
0-17-3-24-49-23-16-0
0-53-11-38-10-26-0
0-34-52-27-45-4-0
Cost: 519
0-26-40-32-44-3-17-0
0-51-16-49-24-23-33-0
0-7-35-19-8-46-0
0-12-9-39-10-38-0
0-1-43-41-42-22-28-0
0-21-47-36-37-5-29-0
0-4-30-2-6-0
0-45-27-13-52-34-0
Cost: 519
0-26-40-32-44-3-17-0
0-28-22-42-41-43-1-0
0-29-5-37-36-47-21-0
0-7-35-19-8-46-0
0-38-10-39-9-12-0
0-6-2-30-4-0
0-33-23-24-49-16-51-0
0-45-27-13-52-34-0
Cost: 519
0-26-40-32-44-3-17-0
0-28-22-42-41-43-1-0
0-29-5-37-36-47-21-0
0-7-35-19-8-46-0
0-38-10-39-9-12-0
0-6-2-30-4-0
0-33-23-24-49-16-51-0
0-45-27-13-52-34-0
Cost: 519
0-26-40-32-44-3-17-0
0-34-52-13-27-45-0
0-4-30-2-6-0
0-38-10-39-9-12-0
0-46-8-19-35-7-0
0-29-5-37-36-47-21-0
0-51-16-49-24-23-33-0
0-28-22-42-41-43-1-0
Cost: 519
0-26-40-32-44-3-17-0
0-34-52-13-27-45-0
0-4-30-2-6-0
0-38-10-39-9-12-0
0-46-8-19-35-7-0
0-29-5-37-36-47-21-0
0-51-16-49-24-23-33-0
0-28-22-42-41-43-1-0
Cost: 519
0-6-2-30-4-0
0-29-5-37-36-47-21-0
0-28-22-42-41-43-1-0
0-26-40-32-44-3-17-0
0-12-9-39-10-38-0
0-51-16-49-24-23-33-0
0-45-27-13-52-34-0
0-46-8-19-35-7-0
Cost: 519
0-45-27-13-52-34-0
0-6-2-30-4-0
0-28-22-42-41-43-1-0
0-17-3-44-32-40-26-0
0-33-23-24-49-16-51-0
0-12-9-39-10-38-0
0-7-35-19-8-46-0
0-21-47-36-37-5-29-0
Cost: 519
0-1-43-41-42-22-28-0
0-33-23-24-49-16-51-0
0-12-9-39-10-38-0
0-34-52-13-27-45-0
0-4-30-2-6-0
0-29-5-37-36-47-21-0
0-17-3-44-32-40-26-0
0-7-35-19-8-46-0
Cost: 519
0-7-35-19-8-46-0
0-34-52-13-27-45-0
0-21-47-36-37-5-29-0
0-17-3-44-32-40-26-0
0-6-2-30-4-0
0-51-16-49-24-23-33-0
0-12-9-39-10-38-0
0-1-43-41-42-22-28-0
Cost: 519
0-7-35-19-8-46-0
0-34-52-13-27-45-0
0-21-47-36-37-5-29-0
0-17-3-44-32-40-26-0
0-6-2-30-4-0
0-51-16-49-24-23-33-0
0-12-9-39-10-38-0
0-1-43-41-42-22-28-0
Cost: 519
0-1-43-41-42-22-28-0
0-38-10-39-9-12-0
0-46-8-19-35-7-0
0-21-47-36-37-5-29-0
0-17-3-44-32-40-26-0
0-4-30-2-6-0
0-51-16-49-24-23-33-0
0-34-52-13-27-45-0
Cost: 519
0-12-9-39-10-38-0
0-21-47-36-37-5-29-0
0-1-43-41-42-22-28-0
0-6-2-30-4-0
0-51-16-49-24-23-33-0
0-46-8-19-35-7-0
0-17-3-44-32-40-26-0
0-45-27-13-52-34-0
Cost: 519
0-12-9-39-10-38-0
0-26-40-32-44-3-17-0
0-6-2-30-4-0
0-29-5-37-36-47-21-0
0-45-27-13-52-34-0
0-28-22-42-41-43-1-0
0-33-23-24-49-16-51-0
0-7-35-19-8-46-0
Cost: 519
0-12-9-39-10-38-0
0-26-40-32-44-3-17-0
0-6-2-30-4-0
0-29-5-37-36-47-21-0
0-45-27-13-52-34-0
0-28-22-42-41-43-1-0
0-33-23-24-49-16-51-0
0-7-35-19-8-46-0
Cost: 519
0-38-10-39-9-12-0
0-7-35-19-8-46-0
0-17-3-44-32-40-26-0
0-21-47-36-37-5-29-0
0-33-23-24-49-16-51-0
0-6-2-30-4-0
0-1-43-41-42-22-28-0
0-45-27-13-52-34-0
Cost: 519
0-38-10-39-9-12-0
0-7-35-19-8-46-0
0-17-3-44-32-40-26-0
0-21-47-36-37-5-29-0
0-33-23-24-49-16-51-0
0-6-2-30-4-0
0-1-43-41-42-22-28-0
0-45-27-13-52-34-0
Cost: 519
0-28-22-42-41-43-1-0
0-45-27-13-52-34-0
0-17-3-44-32-40-26-0
0-29-5-37-36-47-21-0
0-7-35-19-8-46-0
0-4-30-2-6-0
0-38-10-39-9-12-0
0-33-23-24-49-16-51-0
Cost: 519
0-38-10-39-9-12-0
0-7-35-19-8-46-0
0-17-3-44-32-40-26-0
0-21-47-36-37-5-29-0
0-33-23-24-49-16-51-0
0-6-2-30-4-0
0-1-43-41-42-22-28-0
0-45-27-13-52-34-0
Cost: 519
0-12-9-39-10-38-0
0-21-47-36-37-5-29-0
0-1-43-41-42-22-28-0
0-6-2-30-4-0
0-51-16-49-24-23-33-0
0-46-8-19-35-7-0
0-17-3-44-32-40-26-0
0-45-27-13-52-34-0
Cost: 519
0-12-9-39-10-38-0
0-26-40-32-44-3-17-0
0-6-2-30-4-0
0-29-5-37-36-47-21-0
0-45-27-13-52-34-0
0-28-22-42-41-43-1-0
0-33-23-24-49-16-51-0
0-7-35-19-8-46-0
Cost: 519
0-46-8-19-35-7-0
0-51-16-49-24-23-33-0
0-21-47-36-37-5-29-0
0-34-52-13-27-45-0
0-38-10-39-9-12-0
0-28-22-42-41-43-1-0
0-26-40-32-44-3-17-0
0-4-30-2-6-0
Cost: 522
0-46-34-52-13-27-0
0-26-7-35-19-8-0
0-29-5-37-36-47-21-0
0-40-32-44-3-17-0
0-6-2-30-45-4-0
0-1-43-41-42-22-28-0
0-33-23-24-49-16-51-0
0-38-10-39-9-12-0
Cost: 526
0-35-19-8-46-34-0
0-51-3-44-40-17-26-0
0-30-48-29-45-4-0
0-16-23-41-42-43-33-0
0-32-25-9-39-12-0
0-52-27-15-37-36-5-0
0-7-53-11-38-10-0
0-2-28-22-1-6-0
Cost: 519
0-17-3-44-32-40-26-0
0-28-22-42-41-43-1-0
0-34-52-13-27-45-0
0-12-9-39-10-38-0
0-29-5-37-36-47-21-0
0-7-35-19-8-46-0
0-51-16-49-24-23-33-0
0-4-30-2-6-0
Cost: 519
0-17-3-44-32-40-26-0
0-1-43-41-42-22-28-0
0-46-8-19-35-7-0
0-34-52-13-27-45-0
0-21-47-36-37-5-29-0
0-33-23-24-49-16-51-0
0-6-2-30-4-0
0-38-10-39-9-12-0
